NAME: tsp15_10
COMMENT: 15-tsp problem (Padberg/Rinaldi)
TYPE: TSP
DIMENSION: 15
EDGE_WEIGHT_TYPE : EUC_2D
NODE_COORD_SECTION
1 18 39
2 34 12
3 3 18
4 22 9
5 20 5
6 20 23
7 3 20
8 11 17
9 32 10
10 33 36
11 22 40
12 9 31
13 28 32
14 15 38
15 9 6
